run_type constr

species_number 1
input_file	mono.mol   
concentrations    100
place 1 2

bead_type 4 N

dpd_density 3.0
box_size 10 10 10

steps_1 100
steps_2 100
steps_3 10000


timestep 0.04

pair_coeff 0 0 25.0

bond_template 0 0 0.0 4.0

output_freq 1000

restart 1000000
end
