run_type constr

species_number 3
input_file	chain.mol lam.mol	mono.mol   
concentrations    8.90 2.91 88.19
place 1 3
place 2 3

bead_type 1 O
bead_type 2 S
bead_type 3 P
bead_type 4 N

dpd_density 3.0
box_size 52 52 52

steps_1 0
steps_2 10000000
steps_3 0


timestep 0.04

valency 1 1
valency 3 1

pair_coeff 0 0 150.0
chem_coeff 1 1 0.007 0.01
chem_coeff 1 3 0.007 0.01

bond_template 0 0 0.5 150.0

output_freq 1000

restart 1000000
end